NAME : n60w160.001.560.tour
COMMENT : Length = 560
COMMENT : Found by LKH [Keld Helsgaun] Tue May  2 05:19:05 2017
TYPE : TOUR
DIMENSION : 61
TOUR_SECTION
1
50
27
40
9
17
8
35
47
53
3
20
21
26
34
15
54
57
13
30
39
46
28
38
48
29
31
2
43
33
5
22
49
52
18
36
12
23
19
55
41
59
16
37
44
6
32
25
45
10
60
42
11
4
51
24
58
56
7
61
14
-1
EOF
